unsat
(:eliminated-applications 1
 :max-memory              17.99
 :memory                  17.89
 :nlsat-conflicts         1
 :nlsat-propagations      2
 :nlsat-stages            1
 :num-allocs              4994
 :rlimit-count            596
 :time                    0.00)
